50
1 0 60
2 0 63
2 1 32
3 0 33
3 1 61
3 2 54
4 0 65
4 1 6
4 2 21
4 3 46
5 0 3
5 1 48
5 2 66
5 3 37
5 4 65
6 0 38
6 1 47
6 2 47
6 3 9
6 4 59
6 5 61
7 0 46
7 1 56
7 2 54
7 3 56
7 4 1
7 5 57
7 6 7
8 0 57
8 1 54
8 2 37
8 3 59
8 4 65
8 5 34
8 6 30
8 7 1
9 0 66
9 1 16
9 2 8
9 3 27
9 4 7
9 5 44
9 6 27
9 7 47
9 8 48
10 0 31
10 1 27
10 2 8
10 3 30
10 4 39
10 5 50
10 6 57
10 7 21
10 8 52
10 9 18
11 0 14
11 1 1
11 2 36
11 3 47
11 4 41
11 5 44
11 6 3
11 7 29
11 8 33
11 9 17
11 10 55
12 0 16
12 1 52
12 2 49
12 3 30
12 4 28
12 5 13
12 6 48
12 7 1
12 8 7
12 9 54
12 10 61
12 11 49
13 0 20
13 1 43
13 2 63
13 3 45
13 4 64
13 5 64
13 6 6
13 7 16
13 8 43
13 9 47
13 10 13
13 11 25
13 12 52
14 0 24
14 1 46
14 2 19
14 3 12
14 4 64
14 5 36
14 6 13
14 7 17
14 8 12
14 9 32
14 10 36
14 11 42
14 12 40
14 13 57
15 0 34
15 1 50
15 2 49
15 3 15
15 4 56
15 5 15
15 6 20
15 7 65
15 8 25
15 9 8
15 10 51
15 11 8
15 12 47
15 13 35
15 14 33
16 0 53
16 1 63
16 2 1
16 3 33
16 4 10
16 5 28
16 6 57
16 7 60
16 8 47
16 9 50
16 10 9
16 11 62
16 12 13
16 13 63
16 14 1
16 15 23
17 0 54
17 1 64
17 2 64
17 3 5
17 4 3
17 5 18
17 6 41
17 7 44
17 8 38
17 9 20
17 10 30
17 11 13
17 12 9
17 13 37
17 14 47
17 15 16
17 16 7
18 0 11
18 1 7
18 2 1
18 3 18
18 4 53
18 5 6
18 6 28
18 7 1
18 8 27
18 9 7
18 10 9
18 11 66
18 12 18
18 13 49
18 14 34
18 15 61
18 16 9
18 17 57
19 0 14
19 1 1
19 2 31
19 3 10
19 4 51
19 5 25
19 6 20
19 7 35
19 8 28
19 9 13
19 10 59
19 11 41
19 12 65
19 13 41
19 14 25
19 15 59
19 16 43
19 17 44
19 18 13
20 0 30
20 1 62
20 2 40
20 3 42
20 4 26
20 5 3
20 6 32
20 7 18
20 8 20
20 9 38
20 10 62
20 11 42
20 12 27
20 13 15
20 14 25
20 15 49
20 16 11
20 17 65
20 18 6
20 19 20
21 0 42
21 1 55
21 2 6
21 3 24
21 4 43
21 5 5
21 6 31
21 7 15
21 8 56
21 9 55
21 10 54
21 11 43
21 12 62
21 13 13
21 14 55
21 15 35
21 16 46
21 17 9
21 18 13
21 19 47
21 20 61
22 0 16
22 1 32
22 2 58
22 3 56
22 4 54
22 5 25
22 6 10
22 7 8
22 8 56
22 9 55
22 10 15
22 11 12
22 12 58
22 13 45
22 14 6
22 15 45
22 16 4
22 17 57
22 18 39
22 19 24
22 20 35
22 21 26
23 0 32
23 1 18
23 2 4
23 3 48
23 4 38
23 5 34
23 6 55
23 7 66
23 8 23
23 9 61
23 10 24
23 11 28
23 12 62
23 13 8
23 14 14
23 15 48
23 16 28
23 17 59
23 18 4
23 19 41
23 20 58
23 21 7
23 22 3
24 0 28
24 1 41
24 2 26
24 3 39
24 4 27
24 5 31
24 6 16
24 7 10
24 8 45
24 9 4
24 10 25
24 11 35
24 12 22
24 13 43
24 14 38
24 15 39
24 16 32
24 17 48
24 18 14
24 19 57
24 20 18
24 21 31
24 22 15
24 23 2
25 0 63
25 1 55
25 2 19
25 3 23
25 4 45
25 5 60
25 6 20
25 7 42
25 8 44
25 9 53
25 10 48
25 11 21
25 12 42
25 13 59
25 14 5
25 15 36
25 16 3
25 17 53
25 18 53
25 19 35
25 20 13
25 21 58
25 22 18
25 23 43
25 24 24
26 0 12
26 1 40
26 2 40
26 3 41
26 4 41
26 5 47
26 6 17
26 7 52
26 8 12
26 9 28
26 10 25
26 11 62
26 12 45
26 13 1
26 14 56
26 15 5
26 16 42
26 17 16
26 18 53
26 19 20
26 20 58
26 21 43
26 22 50
26 23 16
26 24 5
26 25 2
27 0 62
27 1 46
27 2 37
27 3 1
27 4 2
27 5 59
27 6 45
27 7 18
27 8 24
27 9 34
27 10 63
27 11 63
27 12 3
27 13 44
27 14 40
27 15 5
27 16 45
27 17 24
27 18 9
27 19 13
27 20 34
27 21 9
27 22 19
27 23 37
27 24 32
27 25 55
27 26 14
28 0 23
28 1 7
28 2 61
28 3 5
28 4 2
28 5 27
28 6 35
28 7 4
28 8 48
28 9 28
28 10 21
28 11 50
28 12 11
28 13 43
28 14 58
28 15 19
28 16 46
28 17 51
28 18 2
28 19 37
28 20 10
28 21 33
28 22 28
28 23 53
28 24 1
28 25 9
28 26 27
28 27 60
29 0 53
29 1 30
29 2 51
29 3 35
29 4 39
29 5 61
29 6 63
29 7 47
29 8 33
29 9 19
29 10 2
29 11 50
29 12 8
29 13 5
29 14 14
29 15 29
29 16 24
29 17 44
29 18 62
29 19 47
29 20 23
29 21 53
29 22 52
29 23 47
29 24 5
29 25 51
29 26 31
29 27 40
29 28 11
30 0 46
30 1 5
30 2 40
30 3 59
30 4 33
30 5 7
30 6 3
30 7 11
30 8 41
30 9 60
30 10 39
30 11 27
30 12 36
30 13 42
30 14 58
30 15 15
30 16 48
30 17 58
30 18 7
30 19 36
30 20 14
30 21 38
30 22 24
30 23 33
30 24 31
30 25 47
30 26 51
30 27 13
30 28 66
30 29 8
31 0 54
31 1 22
31 2 43
31 3 15
31 4 18
31 5 5
31 6 60
31 7 48
31 8 39
31 9 49
31 10 29
31 11 24
31 12 55
31 13 22
31 14 46
31 15 18
31 16 31
31 17 49
31 18 32
31 19 56
31 20 29
31 21 22
31 22 39
31 23 52
31 24 30
31 25 13
31 26 64
31 27 58
31 28 34
31 29 10
31 30 9
32 0 46
32 1 65
32 2 37
32 3 50
32 4 24
32 5 38
32 6 16
32 7 30
32 8 55
32 9 30
32 10 11
32 11 31
32 12 28
32 13 3
32 14 58
32 15 42
32 16 52
32 17 17
32 18 29
32 19 49
32 20 13
32 21 18
32 22 50
32 23 33
32 24 5
32 25 5
32 26 30
32 27 16
32 28 64
32 29 41
32 30 24
32 31 35
33 0 43
33 1 50
33 2 46
33 3 1
33 4 51
33 5 52
33 6 25
33 7 17
33 8 21
33 9 20
33 10 64
33 11 36
33 12 3
33 13 14
33 14 5
33 15 41
33 16 19
33 17 39
33 18 37
33 19 7
33 20 65
33 21 37
33 22 42
33 23 61
33 24 53
33 25 14
33 26 43
33 27 63
33 28 55
33 29 38
33 30 23
33 31 54
33 32 61
34 0 59
34 1 50
34 2 39
34 3 58
34 4 51
34 5 65
34 6 44
34 7 12
34 8 6
34 9 44
34 10 4
34 11 32
34 12 37
34 13 54
34 14 8
34 15 42
34 16 23
34 17 17
34 18 18
34 19 43
34 20 19
34 21 62
34 22 7
34 23 48
34 24 36
34 25 55
34 26 18
34 27 48
34 28 40
34 29 14
34 30 53
34 31 22
34 32 6
34 33 25
35 0 46
35 1 49
35 2 54
35 3 28
35 4 15
35 5 61
35 6 65
35 7 18
35 8 65
35 9 44
35 10 35
35 11 16
35 12 52
35 13 52
35 14 51
35 15 66
35 16 61
35 17 28
35 18 19
35 19 20
35 20 24
35 21 16
35 22 26
35 23 19
35 24 60
35 25 57
35 26 37
35 27 63
35 28 27
35 29 6
35 30 61
35 31 12
35 32 33
35 33 26
35 34 37
36 0 24
36 1 36
36 2 2
36 3 15
36 4 41
36 5 48
36 6 43
36 7 41
36 8 9
36 9 19
36 10 15
36 11 32
36 12 61
36 13 46
36 14 51
36 15 17
36 16 21
36 17 4
36 18 60
36 19 44
36 20 52
36 21 62
36 22 48
36 23 55
36 24 1
36 25 36
36 26 4
36 27 49
36 28 13
36 29 3
36 30 18
36 31 63
36 32 13
36 33 16
36 34 15
36 35 5
37 0 54
37 1 1
37 2 64
37 3 22
37 4 22
37 5 17
37 6 25
37 7 22
37 8 19
37 9 2
37 10 47
37 11 38
37 12 66
37 13 34
37 14 54
37 15 46
37 16 7
37 17 49
37 18 33
37 19 18
37 20 33
37 21 4
37 22 21
37 23 40
37 24 19
37 25 9
37 26 42
37 27 5
37 28 30
37 29 51
37 30 3
37 31 45
37 32 43
37 33 56
37 34 4
37 35 6
37 36 10
38 0 12
38 1 65
38 2 17
38 3 60
38 4 4
38 5 21
38 6 18
38 7 13
38 8 56
38 9 66
38 10 13
38 11 25
38 12 59
38 13 34
38 14 5
38 15 51
38 16 38
38 17 26
38 18 9
38 19 34
38 20 17
38 21 62
38 22 6
38 23 8
38 24 27
38 25 8
38 26 2
38 27 62
38 28 24
38 29 48
38 30 7
38 31 51
38 32 24
38 33 35
38 34 21
38 35 31
38 36 40
38 37 4
39 0 60
39 1 64
39 2 62
39 3 55
39 4 11
39 5 34
39 6 5
39 7 39
39 8 46
39 9 47
39 10 32
39 11 54
39 12 30
39 13 38
39 14 32
39 15 19
39 16 13
39 17 11
39 18 8
39 19 42
39 20 56
39 21 3
39 22 51
39 23 28
39 24 19
39 25 46
39 26 47
39 27 45
39 28 29
39 29 66
39 30 65
39 31 15
39 32 31
39 33 66
39 34 22
39 35 27
39 36 49
39 37 40
39 38 66
40 0 32
40 1 49
40 2 14
40 3 50
40 4 31
40 5 7
40 6 14
40 7 27
40 8 50
40 9 27
40 10 59
40 11 32
40 12 51
40 13 29
40 14 9
40 15 16
40 16 53
40 17 12
40 18 3
40 19 50
40 20 41
40 21 31
40 22 20
40 23 65
40 24 25
40 25 19
40 26 3
40 27 7
40 28 66
40 29 11
40 30 22
40 31 19
40 32 19
40 33 61
40 34 35
40 35 61
40 36 65
40 37 62
40 38 38
40 39 64
41 0 62
41 1 39
41 2 21
41 3 39
41 4 66
41 5 47
41 6 50
41 7 55
41 8 1
41 9 57
41 10 4
41 11 34
41 12 34
41 13 65
41 14 19
41 15 49
41 16 43
41 17 64
41 18 18
41 19 54
41 20 32
41 21 46
41 22 23
41 23 25
41 24 54
41 25 60
41 26 50
41 27 64
41 28 9
41 29 65
41 30 47
41 31 28
41 32 13
41 33 21
41 34 39
41 35 62
41 36 40
41 37 64
41 38 4
41 39 24
41 40 10
42 0 54
42 1 34
42 2 26
42 3 58
42 4 17
42 5 27
42 6 40
42 7 18
42 8 16
42 9 46
42 10 27
42 11 42
42 12 29
42 13 50
42 14 31
42 15 4
42 16 15
42 17 11
42 18 14
42 19 19
42 20 29
42 21 56
42 22 19
42 23 12
42 24 48
42 25 32
42 26 24
42 27 1
42 28 58
42 29 26
42 30 23
42 31 43
42 32 59
42 33 2
42 34 6
42 35 2
42 36 6
42 37 7
42 38 11
42 39 59
42 40 62
42 41 39
43 0 5
43 1 42
43 2 21
43 3 28
43 4 26
43 5 36
43 6 17
43 7 41
43 8 13
43 9 52
43 10 34
43 11 63
43 12 8
43 13 10
43 14 34
43 15 43
43 16 59
43 17 19
43 18 24
43 19 35
43 20 60
43 21 49
43 22 12
43 23 39
43 24 35
43 25 29
43 26 55
43 27 10
43 28 66
43 29 2
43 30 55
43 31 62
43 32 13
43 33 31
43 34 65
43 35 30
43 36 33
43 37 48
43 38 1
43 39 1
43 40 44
43 41 24
43 42 24
44 0 66
44 1 37
44 2 32
44 3 52
44 4 11
44 5 50
44 6 26
44 7 33
44 8 15
44 9 42
44 10 51
44 11 58
44 12 56
44 13 47
44 14 11
44 15 11
44 16 7
44 17 49
44 18 31
44 19 39
44 20 47
44 21 17
44 22 18
44 23 46
44 24 36
44 25 41
44 26 32
44 27 10
44 28 43
44 29 28
44 30 34
44 31 63
44 32 30
44 33 10
44 34 65
44 35 65
44 36 56
44 37 10
44 38 50
44 39 28
44 40 34
44 41 38
44 42 44
44 43 19
45 0 40
45 1 46
45 2 18
45 3 6
45 4 46
45 5 56
45 6 42
45 7 41
45 8 28
45 9 47
45 10 52
45 11 15
45 12 30
45 13 62
45 14 26
45 15 54
45 16 46
45 17 16
45 18 63
45 19 1
45 20 44
45 21 18
45 22 21
45 23 50
45 24 45
45 25 19
45 26 37
45 27 19
45 28 12
45 29 1
45 30 22
45 31 43
45 32 14
45 33 30
45 34 16
45 35 53
45 36 15
45 37 38
45 38 6
45 39 6
45 40 28
45 41 63
45 42 52
45 43 50
45 44 23
46 0 59
46 1 18
46 2 39
46 3 32
46 4 49
46 5 65
46 6 64
46 7 16
46 8 3
46 9 30
46 10 63
46 11 19
46 12 13
46 13 14
46 14 6
46 15 9
46 16 35
46 17 3
46 18 6
46 19 60
46 20 52
46 21 20
46 22 40
46 23 65
46 24 59
46 25 53
46 26 46
46 27 26
46 28 9
46 29 26
46 30 55
46 31 15
46 32 8
46 33 32
46 34 22
46 35 4
46 36 24
46 37 62
46 38 47
46 39 34
46 40 16
46 41 3
46 42 26
46 43 14
46 44 45
46 45 46
47 0 40
47 1 56
47 2 51
47 3 57
47 4 32
47 5 21
47 6 14
47 7 62
47 8 53
47 9 43
47 10 24
47 11 44
47 12 45
47 13 43
47 14 12
47 15 38
47 16 16
47 17 23
47 18 20
47 19 26
47 20 13
47 21 31
47 22 15
47 23 36
47 24 46
47 25 59
47 26 13
47 27 54
47 28 61
47 29 29
47 30 13
47 31 4
47 32 21
47 33 48
47 34 29
47 35 5
47 36 28
47 37 52
47 38 61
47 39 17
47 40 43
47 41 49
47 42 3
47 43 57
47 44 44
47 45 45
47 46 39
48 0 35
48 1 58
48 2 41
48 3 8
48 4 50
48 5 27
48 6 14
48 7 4
48 8 23
48 9 46
48 10 18
48 11 45
48 12 66
48 13 14
48 14 49
48 15 52
48 16 49
48 17 22
48 18 33
48 19 12
48 20 33
48 21 2
48 22 55
48 23 43
48 24 24
48 25 13
48 26 60
48 27 29
48 28 18
48 29 40
48 30 27
48 31 26
48 32 5
48 33 48
48 34 1
48 35 10
48 36 8
48 37 18
48 38 43
48 39 5
48 40 8
48 41 50
48 42 32
48 43 56
48 44 49
48 45 47
48 46 9
48 47 64
49 0 2
49 1 14
49 2 47
49 3 31
49 4 1
49 5 66
49 6 35
49 7 38
49 8 53
49 9 16
49 10 32
49 11 21
49 12 60
49 13 44
49 14 48
49 15 6
49 16 2
49 17 47
49 18 63
49 19 50
49 20 17
49 21 2
49 22 28
49 23 59
49 24 20
49 25 10
49 26 44
49 27 9
49 28 30
49 29 34
49 30 12
49 31 43
49 32 27
49 33 64
49 34 3
49 35 34
49 36 60
49 37 24
49 38 60
49 39 17
49 40 63
49 41 14
49 42 51
49 43 47
49 44 15
49 45 9
49 46 53
49 47 31
49 48 45
